RT is False
Default write of storage_offers_DA.csv just to have a file (but constraint should be inactive)
Reading model...
...model read.
creating competitive generators file...
...competitive generators recorded.
Loading data...
.. day-ahead data with real-time VRE data read.
Compiling instance...
...instance created.
Creating Offer Mitigation (model will solve as dispatch if TRUE)...
Solving...

Welcome to IBM(R) ILOG(R) CPLEX(R) Interactive Optimizer 12.9.0.0
  with Simplex, Mixed Integer & Barrier Optimizers
5725-A06 5725-A29 5724-Y48 5724-Y49 5724-Y54 5724-Y55 5655-Y21
Copyright IBM Corp. 1988, 2019.  All Rights Reserved.

Type 'help' for a list of available commands.
Type 'help' followed by a command name for more
information on commands.

CPLEX> Logfile 'cplex.log' closed.
Logfile 'C:\Users\llavin\Desktop\test919\logs\tmp76px3vhr.cplex.log' open.
CPLEX> New value for parallel optimization mode: -1
CPLEX> New value for mixed integer optimality gap tolerance: 0.01
CPLEX> New value for integrality tolerance: 1e-09
CPLEX> New value for feasibility tolerance: 0.01
CPLEX> New value for deterministic time limit in ticks: 75000
CPLEX> Problem 'C:\Users\llavin\Desktop\test919\logs\tmpged3vzo4.pyomo.lp' read.
Read time = 0.05 sec. (3.04 ticks)
CPLEX> Problem name         : C:\Users\llavin\Desktop\test919\logs\tmpged3vzo4.pyomo.lp
Objective sense      : Minimize
Variables            :   26081  [Nneg: 1,  Box: 21616,  Free: 4464]
Objective nonzeros   :    2496
Linear constraints   :   27515  [Less: 14006,  Greater: 4416,  Equal: 9093]
  Nonzeros           :   89267
  RHS nonzeros       :   12265

Variables            : Min LB: -5000.000        Max UB: 1000000.       
Objective nonzeros   : Min   : 15.73158         Max   : 124.0997       
Linear constraints   :
  Nonzeros           : Min   : 0.8500000        Max   : 3000.000       
  RHS nonzeros       : Min   : 0.008333333      Max   : 5000.000       
CPLEX> CPXPARAM_Parallel                                -1
CPXPARAM_Simplex_Tolerances_Feasibility          0.01
CPXPARAM_DetTimeLimit                            75000
CPXPARAM_MIP_Tolerances_MIPGap                   0.01
CPXPARAM_MIP_Tolerances_Integrality              1.0000000000000001e-09
Parallel mode: opportunistic, using up to 32 threads for concurrent optimization.
Tried aggregator 1 time.
LP Presolve eliminated 21353 rows and 15464 columns.
Aggregator did 771 substitutions.
Reduced LP has 5391 rows, 9846 columns, and 31807 nonzeros.
Presolve time = 0.05 sec. (30.45 ticks)
Symmetry aggregator did 5563 additional substitutions.

Iteration log . . .
Iteration:     1   Dual objective     =             0.000000
Perturbation started.
Iteration:   101   Dual objective     =             0.000000
Iteration:   334   Dual objective     =             1.155388
Iteration:   592   Dual objective     =             1.706267
Iteration:   850   Dual objective     =             1.853417
Iteration:  1060   Dual objective     =             1.966356
Iteration:  1333   Dual objective     =             2.012505
Iteration:  1581   Dual objective     =             2.043189
Iteration:  1800   Dual objective     =             2.066880
Iteration:  2007   Dual objective     =             2.096368
Iteration:  2190   Dual objective     =         15847.475105
Iteration:  2402   Dual objective     =         45053.426504
Iteration:  2683   Dual objective     =         62998.267783
Iteration:  3029   Dual objective     =         66553.418142
Removing perturbation.

Dual crossover.
  Dual:  Fixing 3 variables.
Using devex.

Primal simplex solved model.


Primal simplex - Optimal:  Objective =  6.6620672686e+04
Solution time =    0.17 sec.  Iterations = 1840 (1127)
Deterministic time = 83.33 ticks  (484.50 ticks/sec)

CPLEX> Solution written to file 'C:\Users\llavin\Desktop\test919\logs\tmp0ss6fs09.cplex.sol'.
CPLEX> Exporting results... 
...storage offer mitigation file created
Converting model to MPEC...
...converted
NOTE: initial MIP solve with only storage competitive to get feasible solution
Solving...

Welcome to IBM(R) ILOG(R) CPLEX(R) Interactive Optimizer 12.9.0.0
  with Simplex, Mixed Integer & Barrier Optimizers
5725-A06 5725-A29 5724-Y48 5724-Y49 5724-Y54 5724-Y55 5655-Y21
Copyright IBM Corp. 1988, 2019.  All Rights Reserved.

Type 'help' for a list of available commands.
Type 'help' followed by a command name for more
information on commands.

CPLEX> Logfile 'cplex.log' closed.
Logfile 'C:\Users\llavin\Desktop\test919\logs\tmpvdu1gesf.cplex.log' open.
CPLEX> New value for parallel optimization mode: -1
CPLEX> New value for mixed integer optimality gap tolerance: 0.01
CPLEX> New value for integrality tolerance: 1e-09
CPLEX> New value for feasibility tolerance: 0.01
CPLEX> New value for deterministic time limit in ticks: 75000
CPLEX> Problem 'C:\Users\llavin\Desktop\test919\logs\tmpfebyuxah.pyomo.lp' read.
Read time = 0.25 sec. (14.78 ticks)
CPLEX> Problem name         : C:\Users\llavin\Desktop\test919\logs\tmpfebyuxah.pyomo.lp
Objective sense      : Maximize
Variables            :   53805  [Nneg: 1,  Box: 22000,  Free: 4464,
                                 Binary: 27340]
Objective nonzeros   :    8974
Linear constraints   :  123205  [Less: 41346,  Greater: 59096,  Equal: 22763]
  Nonzeros           :  291795
  RHS nonzeros       :   67425

Variables            : Min LB: -5000.000        Max UB: 1000000.       
Objective nonzeros   : Min   : 0.008333333      Max   : 753.1500       
Linear constraints   :
  Nonzeros           : Min   : 0.008333333      Max   : 1000000.       
  RHS nonzeros       : Min   : 0.008333333      Max   : 1000000.       
CPLEX> CPXPARAM_Parallel                                -1
CPXPARAM_Simplex_Tolerances_Feasibility          0.01
CPXPARAM_DetTimeLimit                            75000
CPXPARAM_MIP_Tolerances_MIPGap                   0.01
CPXPARAM_MIP_Tolerances_Integrality              1.0000000000000001e-09
Tried aggregator 3 times.
MIP Presolve eliminated 88643 rows and 18940 columns.
MIP Presolve added 3379 rows and 0 columns.
MIP Presolve modified 24870 coefficients.
Aggregator did 12995 substitutions.
Reduced MIP has 24946 rows, 21311 columns, and 71180 nonzeros.
Reduced MIP has 8407 binaries, 0 generals, 0 SOSs, and 0 indicators.
Presolve time = 0.28 sec. (173.73 ticks)
Probing fixed 382 vars, tightened 2805 bounds.
Probing time = 1.19 sec. (883.02 ticks)
Tried aggregator 2 times.
MIP Presolve eliminated 868 rows and 768 columns.
MIP Presolve modified 2186 coefficients.
Aggregator did 38 substitutions.
Reduced MIP has 24040 rows, 20505 columns, and 68553 nonzeros.
Reduced MIP has 8024 binaries, 0 generals, 0 SOSs, and 0 indicators.
Presolve time = 0.11 sec. (67.57 ticks)
Probing fixed 4 vars, tightened 12 bounds.
Probing time = 0.19 sec. (118.14 ticks)
Clique table members: 8871.
MIP emphasis: balance optimality and feasibility.
MIP search method: dynamic search.
Parallel mode: opportunistic, using up to 32 threads.
Root relaxation solution time = 0.38 sec. (275.34 ticks)

        Nodes                                         Cuts/
   Node  Left     Objective  IInf  Best Integer    Best Bound    ItCnt     Gap

      0     0     3666.9525  1694                   3666.9525     5908         
      0     0     3648.1754   629                   Cuts: 483     6155         
      0     0     3640.5448   530                   Cuts: 152     6253         
      0     0     3640.0274   509                    Cuts: 64     6297         
      0     0     3604.6704   482                    Cuts: 59     6337         
      0     0     3604.6704   461                    Cuts: 56     6371         
      0     0     3604.6704   441                    Cuts: 37     6393         
      0     0     3604.6704   438                    Cuts: 29     6409         
      0     0     3604.6704    26                     Cuts: 2     6409         
      0     3    infeasible                         3567.7995     6419         
Elapsed time = 9.52 sec. (6029.94 ticks, tree = 0.02 MB, solutions = 0)
    555   113     2988.2529    18                   3513.9975     8893         
   1238   525    infeasible                         3513.9975    16208         
   1875   774     2902.7381     6                   3513.9975    20526         
*  2195+  784                          932.7297     3513.9975           276.74%
   2661   401     3513.9975    15     3409.9622     3513.9975    32960    3.05%
*  2955   395      integral     0     3513.9975     3513.9975    32968    0.00%
   3096   121     3513.9975    10     3513.9975     3513.9975    34060    0.00%
*  3186   120      integral     0     3513.9975     3513.9975    34065    0.00%
   3253   401        cutoff           3513.9975     3513.9975    32955    0.00%

Clique cuts applied:  10
Cover cuts applied:  1
Implied bound cuts applied:  11
Flow cuts applied:  256
Mixed integer rounding cuts applied:  6
Gomory fractional cuts applied:  22

Root node processing (before b&c):
  Real time             =    8.38 sec. (6014.77 ticks)
Parallel b&c, 32 threads:
  Real time             =    8.66 sec. (1826.86 ticks)
  Sync time (average)   =    0.89 sec.
  Wait time (average)   =    0.00 sec.
                          ------------
Total (root+branch&cut) =   17.03 sec. (7841.63 ticks)

Solution pool: 12 solutions saved.

MIP - Integer optimal solution:  Objective =  3.5139974588e+03
Solution time =   17.11 sec.  Iterations = 34385  Nodes = 3279
Deterministic time = 7841.78 ticks  (458.34 ticks/sec)

CPLEX> Incumbent solution written to file 'C:\Users\llavin\Desktop\test919\logs\tmp0cojqee4.cplex.sol'.
CPLEX> NOTE: no warmstart specified for MIP iteration, default behavior is true
NOTE: resolving with all competitive generators using storage-only solution to warmstart
Solving...

Welcome to IBM(R) ILOG(R) CPLEX(R) Interactive Optimizer 12.9.0.0
  with Simplex, Mixed Integer & Barrier Optimizers
5725-A06 5725-A29 5724-Y48 5724-Y49 5724-Y54 5724-Y55 5655-Y21
Copyright IBM Corp. 1988, 2019.  All Rights Reserved.

Type 'help' for a list of available commands.
Type 'help' followed by a command name for more
information on commands.

CPLEX> Logfile 'cplex.log' closed.
Logfile 'C:\Users\llavin\Desktop\test919\logs\tmp6oirpz6k.cplex.log' open.
CPLEX> New value for parallel optimization mode: -1
CPLEX> New value for mixed integer optimality gap tolerance: 0.01
CPLEX> New value for integrality tolerance: 1e-09
CPLEX> New value for feasibility tolerance: 0.01
CPLEX> New value for deterministic time limit in ticks: 75000
CPLEX> Problem 'C:\Users\llavin\Desktop\test919\logs\tmpd1qqqwe1.pyomo.lp' read.
Read time = 0.23 sec. (14.81 ticks)
CPLEX> MIP start file 'C:\Users\llavin\Desktop\test919\logs\tmpufv1py5b.cplex.mst' read.
CPLEX> Problem name         : C:\Users\llavin\Desktop\test919\logs\tmpd1qqqwe1.pyomo.lp
Objective sense      : Maximize
Variables            :   54525  [Nneg: 1,  Box: 22720,  Free: 4464,
                                 Binary: 27340]
Objective nonzeros   :    9670
Linear constraints   :  123205  [Less: 41346,  Greater: 59096,  Equal: 22763]
  Nonzeros           :  291795
  RHS nonzeros       :   67425

Variables            : Min LB: -5000.000        Max UB: 1000000.       
Objective nonzeros   : Min   : 0.008333333      Max   : 753.1500       
Linear constraints   :
  Nonzeros           : Min   : 0.008333333      Max   : 1000000.       
  RHS nonzeros       : Min   : 0.008333333      Max   : 1000000.       
CPLEX> CPXPARAM_Parallel                                -1
CPXPARAM_Simplex_Tolerances_Feasibility          0.01
CPXPARAM_DetTimeLimit                            75000
CPXPARAM_MIP_Tolerances_MIPGap                   0.01
CPXPARAM_MIP_Tolerances_Integrality              1.0000000000000001e-09
Warning:  No solution found from 1 MIP starts.
Retaining values of one MIP start for possible repair.
Tried aggregator 3 times.
MIP Presolve eliminated 88643 rows and 19660 columns.
MIP Presolve added 3379 rows and 0 columns.
MIP Presolve modified 24870 coefficients.
Aggregator did 12995 substitutions.
Reduced MIP has 24946 rows, 21311 columns, and 71180 nonzeros.
Reduced MIP has 8407 binaries, 0 generals, 0 SOSs, and 0 indicators.
Presolve time = 0.30 sec. (174.09 ticks)
Probing fixed 382 vars, tightened 2805 bounds.
Probing time = 1.19 sec. (883.02 ticks)
Tried aggregator 2 times.
MIP Presolve eliminated 868 rows and 768 columns.
MIP Presolve modified 2186 coefficients.
Aggregator did 38 substitutions.
Reduced MIP has 24040 rows, 20505 columns, and 68553 nonzeros.
Reduced MIP has 8024 binaries, 0 generals, 0 SOSs, and 0 indicators.
Presolve time = 0.09 sec. (67.57 ticks)
Probing fixed 4 vars, tightened 12 bounds.
Probing time = 0.19 sec. (118.14 ticks)
Clique table members: 8871.
MIP emphasis: balance optimality and feasibility.
MIP search method: dynamic search.
Parallel mode: opportunistic, using up to 32 threads.
Root relaxation solution time = 0.38 sec. (288.24 ticks)

        Nodes                                         Cuts/
   Node  Left     Objective  IInf  Best Integer    Best Bound    ItCnt     Gap

      0     0   141068.3284  1717                 141068.3284     6044         
      0     0   138514.6921   622                   Cuts: 587     6391         
      0     0   137823.8711   525                   Cuts: 201     6508         
      0     0   137774.1540   523                   Cuts: 122     6574         
      0     0   137608.6651   480                    Cuts: 92     6624         
      0     0   137608.6651   469                    Cuts: 78     6655         
      0     0   137608.6651   450                    Cuts: 60     6671         
      0     0   137608.6651   439                    Cuts: 61     6682         
      0     0   137608.6651   432                    Cuts: 42     6689         
      0     0   137608.6651   425                    Cuts: 36     6691         
Repair heuristic found nothing.
      0     2   137608.6651   425                    Cuts: 35     6691         
Elapsed time = 12.02 sec. (6720.45 ticks, tree = 0.02 MB, solutions = 0)
    301    77   130553.0126   369                 135130.5107     8179         
    636   351   107697.3988   363                 135130.5107    15039         
   1092   565    81469.9565   387                 135130.5107    20777         
   1676   991    36820.6956   351                 135130.5107    28976         
   2288  1311    22870.7257   334                 135130.5107    35421         
   2921  1743    27175.4132   312                 135130.5107    42747         
   3633  2284    28960.7622   346                 135130.5107    50291         
   4854  2420    28335.0082   309                 135130.5107    50431         
   5843  4953    12364.4028   318                 135130.5107    57462         
   9912  7566    30912.3433   305                 135130.5107    64129         
Elapsed time = 29.63 sec. (9824.16 ticks, tree = 80.52 MB, solutions = 1)
* 10389+ 4764                        25414.1160   135130.5107           431.71%
* 11699  8779      integral     0    29135.2248   135130.5107    64766  363.80%
  11895  3141        cutoff          29135.2248    99618.7459    77265  241.92%
  13290   597    44792.1502   148    29135.2248    86462.1873    88816  196.76%
  14648  1336    33104.5821   154    29135.2248    84395.5605   103095  189.67%
  17513  3438    32762.5642   110    29135.2248    79793.6001   157650  173.87%
  20042  3946    29406.5988   115    29135.2248    53861.2218   186267   84.87%
  22676  4801    33829.3475   155    29135.2248    51284.2418   230126   76.02%
  25005  5281    37398.5555   124    29135.2248    46587.0701   267407   59.90%
  27772  3136    42483.8413   121    36568.9981    46587.0701   327220   27.39%
  30799  3155    36989.2503   108    36568.9981    44630.9692   330123   22.05%
Elapsed time = 86.66 sec. (23371.67 ticks, tree = 19.54 MB, solutions = 6)
  33782  3197        cutoff          36568.9981    44630.9692   329563   22.05%
  36667  5351    42991.1081   110    36568.9981    44080.4867   363582   20.54%
  39092  5765    43178.9647   111    36568.9981    43864.0929   369851   19.95%
  41104  8292    42812.8529   113    36568.9981    43757.8939   398714   19.66%
  43306  7846    43649.0155   112    36568.9981    43757.8939   393596   19.66%
  46056  8400    36928.8611   114    36568.9981    43672.7685   399689   19.43%
  48838  9971    43282.8589   104    36568.9981    43649.0155   419808   19.36%
  51504 10234        cutoff          36568.9981    43649.0155   424367   19.36%
  54054 12570    43215.4070   113    36568.9981    43374.7979   463879   18.61%
  56526 13557    36680.1720   106    36568.9981    43354.9915   484221   18.56%
Elapsed time = 139.84 sec. (32912.05 ticks, tree = 106.11 MB, solutions = 6)
  58878 14149    43156.8176   109    36568.9981    43332.4467   496567   18.50%
  61296 14532        cutoff          36568.9981    43322.9302   505182   18.47%
  63492 15362    43070.4860   111    36568.9981    43224.1245   523924   18.20%
  65520 17812    40187.9083   108    36568.9981    43171.3986   585451   18.05%
  67690 17439    42725.4548   112    36568.9981    43171.3986   576665   18.05%
  70277 17046        cutoff          36568.9981    43171.3986   565996   18.05%
  72898 18197    42732.3647   107    36568.9981    43151.5923   595325   18.00%
  75657 19038    42540.1862   107    36568.9981    43060.5323   617333   17.75%
  78477 20201    infeasible          36568.9981    43060.5323   643908   17.75%
  81181 22319    36938.2207    99    36568.9981    43029.2256   688289   17.67%
Elapsed time = 194.53 sec. (42451.37 ticks, tree = 176.77 MB, solutions = 6)
  83864 22139        cutoff          36568.9981    43013.7000   685288   17.62%
  86394 24679        cutoff          36568.9981    42956.7876   741834   17.47%
  88932 22906    infeasible          36568.9981    42923.5353   702051   17.38%
  91401 24362    42236.5741   104    36568.9981    42889.5507   734857   17.28%
  93622 27838    40843.0776   103    36568.9981    42812.8529   809008   17.07%
  95616 25574    42483.8413   110    36902.1425    42764.1892   760310   15.89%
  97612 28688        cutoff          36902.1425    42732.0209   826159   15.80%
  99931 29599        cutoff          36902.1425    42724.9551   865463   15.78%
 102630 29036        cutoff          36902.1425    42684.1666   854646   15.67%
 105270 30512    42227.5167   116    36902.1425    42663.9817   886522   15.61%
Elapsed time = 242.91 sec. (51992.20 ticks, tree = 239.16 MB, solutions = 7)
 107747 28781    42071.6722   114    36902.1425    42608.5017   846875   15.46%
 110205 31331        cutoff          36902.1425    42608.5017   957550   15.46%
 112679 31198    40058.0704    98    36902.1425    42584.6665   995930   15.40%
 115316 31193        cutoff          36902.1425    42559.5103   998091   15.33%
 118098 30860    41205.6180   116    36902.1425    42544.6546  1057777   15.29%
 120966 30709    infeasible          36902.1425    42469.8136  1076620   15.09%
 124037 31026    41184.7033   113    36902.1425    42433.7019  1029735   14.99%
 127109 30157    41576.2207    98    36902.1425    42403.6085  1153798   14.91%
 130105 29614        cutoff          36902.1425    42338.6213  1211113   14.73%
 133008 30043    39259.8419   121    36902.1425    42307.7486  1166260   14.65%
Elapsed time = 296.80 sec. (61532.87 ticks, tree = 232.89 MB, solutions = 7)
 135867 29642        cutoff          36902.1425    42233.3087  1209263   14.45%
 138479 29293    infeasible          36902.1425    42198.0103  1243464   14.35%
 140945 28883        cutoff          36902.1425    42100.5983  1283722   14.09%
 142814 29115    41313.1667   100    36902.1425    42013.3655  1260366   13.85%
 144248 28469    infeasible          36902.1425    41968.5045  1326979   13.73%
 146151 27485        cutoff          36902.1425    41764.5292  1403183   13.18%
 148388 27964    38593.0356   113    36902.1425    41701.7271  1370265   13.01%
 151138 27528        cutoff          36902.1425    41596.3656  1399790   12.72%
 154083 27636    38523.2383   102    36902.1425    41596.3656  1394522   12.72%
 156657 26051    40246.5442   104    36902.1425    41596.3656  1477260   12.72%
Elapsed time = 332.75 sec. (71071.18 ticks, tree = 197.38 MB, solutions = 7)
 158803 25344    infeasible          36902.1425    41596.3656  1508220   12.72%
 160251 25222    infeasible          36902.1425    41596.3656  1513995   12.72%
 160980 25963    40841.8849    96    36902.1425    41596.3656  1482338   12.72%
 161147 25675        cutoff          36902.1425    41596.3656  1494146   12.72%

Clique cuts applied:  18
Cover cuts applied:  31
Implied bound cuts applied:  58
Flow cuts applied:  922
Mixed integer rounding cuts applied:  193
Gomory fractional cuts applied:  108

Root node processing (before b&c):
  Real time             =    9.86 sec. (6677.59 ticks)
Parallel b&c, 32 threads:
  Real time             =  323.63 sec. (68340.12 ticks)
  Sync time (average)   =    1.79 sec.
  Wait time (average)   =    0.26 sec.
                          ------------
Total (root+branch&cut) =  333.48 sec. (75017.71 ticks)

Solution pool: 7 solutions saved.

MIP - Deterministic time limit exceeded, integer feasible:  Objective =  3.6902142460e+04
Current MIP best bound =  4.1483717298e+04 (gap = 4581.57, 12.42%)
Solution time =  333.55 sec.  Iterations = 1564236  Nodes = 161156 (23886)
Deterministic time = 75017.87 ticks  (224.91 ticks/sec)

CPLEX> Incumbent solution written to file 'C:\Users\llavin\Desktop\test919\logs\tmp4n1i72ud.cplex.sol'.
CPLEX> Exporting results... 
